certificates/rado_a15_c187_N61.cnf
c Rad2 upper bound instance: x1 + 15*x2 - x3 = 187, interval [1,61]
p cnf 61 494
1 9 13 0
-1 -9 -13 0
1 14 24 0
-1 -14 -24 0
1 15 39 0
-1 -15 -39 0
1 16 54 0
-1 -16 -54 0
2 10 13 0
-2 -10 -13 0
2 14 25 0
-2 -14 -25 0
2 15 40 0
-2 -15 -40 0
2 16 55 0
-2 -16 -55 0
3 11 13 0
-3 -11 -13 0
3 14 26 0
-3 -14 -26 0
3 15 41 0
-3 -15 -41 0
3 16 56 0
-3 -16 -56 0
4 12 13 0
-4 -12 -13 0
4 14 27 0
-4 -14 -27 0
4 15 42 0
-4 -15 -42 0
4 16 57 0
-4 -16 -57 0
5 13 0
-5 -13 0
5 14 28 0
-5 -14 -28 0
5 15 43 0
-5 -15 -43 0
5 16 58 0
-5 -16 -58 0
6 13 14 0
-6 -13 -14 0
6 14 29 0
-6 -14 -29 0
6 15 44 0
-6 -15 -44 0
6 16 59 0
-6 -16 -59 0
7 13 15 0
-7 -13 -15 0
7 14 30 0
-7 -14 -30 0
7 15 45 0
-7 -15 -45 0
7 16 60 0
-7 -16 -60 0
1 8 12 0
-1 -8 -12 0
8 13 16 0
-8 -13 -16 0
8 14 31 0
-8 -14 -31 0
8 15 46 0
-8 -15 -46 0
8 16 61 0
-8 -16 -61 0
2 9 12 0
-2 -9 -12 0
9 13 17 0
-9 -13 -17 0
9 14 32 0
-9 -14 -32 0
9 15 47 0
-9 -15 -47 0
3 10 12 0
-3 -10 -12 0
10 13 18 0
-10 -13 -18 0
10 14 33 0
-10 -14 -33 0
10 15 48 0
-10 -15 -48 0
4 11 12 0
-4 -11 -12 0
11 13 19 0
-11 -13 -19 0
11 14 34 0
-11 -14 -34 0
11 15 49 0
-11 -15 -49 0
5 12 0
-5 -12 0
12 13 20 0
-12 -13 -20 0
12 14 35 0
-12 -14 -35 0
12 15 50 0
-12 -15 -50 0
6 12 13 0
-6 -12 -13 0
13 21 0
-13 -21 0
13 14 36 0
-13 -14 -36 0
13 15 51 0
-13 -15 -51 0
7 12 14 0
-7 -12 -14 0
13 14 22 0
-13 -14 -22 0
14 37 0
-14 -37 0
14 15 52 0
-14 -15 -52 0
8 12 15 0
-8 -12 -15 0
13 15 23 0
-13 -15 -23 0
14 15 38 0
-14 -15 -38 0
15 53 0
-15 -53 0
9 12 16 0
-9 -12 -16 0
13 16 24 0
-13 -16 -24 0
14 16 39 0
-14 -16 -39 0
15 16 54 0
-15 -16 -54 0
10 12 17 0
-10 -12 -17 0
13 17 25 0
-13 -17 -25 0
14 17 40 0
-14 -17 -40 0
15 17 55 0
-15 -17 -55 0
11 12 18 0
-11 -12 -18 0
13 18 26 0
-13 -18 -26 0
14 18 41 0
-14 -18 -41 0
15 18 56 0
-15 -18 -56 0
12 19 0
-12 -19 0
13 19 27 0
-13 -19 -27 0
14 19 42 0
-14 -19 -42 0
15 19 57 0
-15 -19 -57 0
13 20 28 0
-13 -20 -28 0
14 20 43 0
-14 -20 -43 0
15 20 58 0
-15 -20 -58 0
12 14 21 0
-12 -14 -21 0
13 21 29 0
-13 -21 -29 0
14 21 44 0
-14 -21 -44 0
15 21 59 0
-15 -21 -59 0
12 15 22 0
-12 -15 -22 0
13 22 30 0
-13 -22 -30 0
14 22 45 0
-14 -22 -45 0
15 22 60 0
-15 -22 -60 0
1 11 23 0
-1 -11 -23 0
12 16 23 0
-12 -16 -23 0
13 23 31 0
-13 -23 -31 0
14 23 46 0
-14 -23 -46 0
15 23 61 0
-15 -23 -61 0
2 11 24 0
-2 -11 -24 0
12 17 24 0
-12 -17 -24 0
13 24 32 0
-13 -24 -32 0
14 24 47 0
-14 -24 -47 0
3 11 25 0
-3 -11 -25 0
12 18 25 0
-12 -18 -25 0
13 25 33 0
-13 -25 -33 0
14 25 48 0
-14 -25 -48 0
4 11 26 0
-4 -11 -26 0
12 19 26 0
-12 -19 -26 0
13 26 34 0
-13 -26 -34 0
14 26 49 0
-14 -26 -49 0
5 11 27 0
-5 -11 -27 0
12 20 27 0
-12 -20 -27 0
13 27 35 0
-13 -27 -35 0
14 27 50 0
-14 -27 -50 0
6 11 28 0
-6 -11 -28 0
12 21 28 0
-12 -21 -28 0
13 28 36 0
-13 -28 -36 0
14 28 51 0
-14 -28 -51 0
7 11 29 0
-7 -11 -29 0
12 22 29 0
-12 -22 -29 0
13 29 37 0
-13 -29 -37 0
14 29 52 0
-14 -29 -52 0
8 11 30 0
-8 -11 -30 0
12 23 30 0
-12 -23 -30 0
13 30 38 0
-13 -30 -38 0
14 30 53 0
-14 -30 -53 0
9 11 31 0
-9 -11 -31 0
12 24 31 0
-12 -24 -31 0
13 31 39 0
-13 -31 -39 0
14 31 54 0
-14 -31 -54 0
10 11 32 0
-10 -11 -32 0
12 25 32 0
-12 -25 -32 0
13 32 40 0
-13 -32 -40 0
14 32 55 0
-14 -32 -55 0
11 33 0
-11 -33 0
12 26 33 0
-12 -26 -33 0
13 33 41 0
-13 -33 -41 0
14 33 56 0
-14 -33 -56 0
11 12 34 0
-11 -12 -34 0
12 27 34 0
-12 -27 -34 0
13 34 42 0
-13 -34 -42 0
14 34 57 0
-14 -34 -57 0
11 13 35 0
-11 -13 -35 0
12 28 35 0
-12 -28 -35 0
13 35 43 0
-13 -35 -43 0
14 35 58 0
-14 -35 -58 0
11 14 36 0
-11 -14 -36 0
12 29 36 0
-12 -29 -36 0
13 36 44 0
-13 -36 -44 0
14 36 59 0
-14 -36 -59 0
11 15 37 0
-11 -15 -37 0
12 30 37 0
-12 -30 -37 0
13 37 45 0
-13 -37 -45 0
14 37 60 0
-14 -37 -60 0
1 10 38 0
-1 -10 -38 0
11 16 38 0
-11 -16 -38 0
12 31 38 0
-12 -31 -38 0
13 38 46 0
-13 -38 -46 0
14 38 61 0
-14 -38 -61 0
2 10 39 0
-2 -10 -39 0
11 17 39 0
-11 -17 -39 0
12 32 39 0
-12 -32 -39 0
13 39 47 0
-13 -39 -47 0
3 10 40 0
-3 -10 -40 0
11 18 40 0
-11 -18 -40 0
12 33 40 0
-12 -33 -40 0
13 40 48 0
-13 -40 -48 0
4 10 41 0
-4 -10 -41 0
11 19 41 0
-11 -19 -41 0
12 34 41 0
-12 -34 -41 0
13 41 49 0
-13 -41 -49 0
5 10 42 0
-5 -10 -42 0
11 20 42 0
-11 -20 -42 0
12 35 42 0
-12 -35 -42 0
13 42 50 0
-13 -42 -50 0
6 10 43 0
-6 -10 -43 0
11 21 43 0
-11 -21 -43 0
12 36 43 0
-12 -36 -43 0
13 43 51 0
-13 -43 -51 0
7 10 44 0
-7 -10 -44 0
11 22 44 0
-11 -22 -44 0
12 37 44 0
-12 -37 -44 0
13 44 52 0
-13 -44 -52 0
8 10 45 0
-8 -10 -45 0
11 23 45 0
-11 -23 -45 0
12 38 45 0
-12 -38 -45 0
13 45 53 0
-13 -45 -53 0
9 10 46 0
-9 -10 -46 0
11 24 46 0
-11 -24 -46 0
12 39 46 0
-12 -39 -46 0
13 46 54 0
-13 -46 -54 0
10 47 0
-10 -47 0
11 25 47 0
-11 -25 -47 0
12 40 47 0
-12 -40 -47 0
13 47 55 0
-13 -47 -55 0
10 11 48 0
-10 -11 -48 0
11 26 48 0
-11 -26 -48 0
12 41 48 0
-12 -41 -48 0
13 48 56 0
-13 -48 -56 0
10 12 49 0
-10 -12 -49 0
11 27 49 0
-11 -27 -49 0
12 42 49 0
-12 -42 -49 0
13 49 57 0
-13 -49 -57 0
10 13 50 0
-10 -13 -50 0
11 28 50 0
-11 -28 -50 0
12 43 50 0
-12 -43 -50 0
13 50 58 0
-13 -50 -58 0
10 14 51 0
-10 -14 -51 0
11 29 51 0
-11 -29 -51 0
12 44 51 0
-12 -44 -51 0
13 51 59 0
-13 -51 -59 0
10 15 52 0
-10 -15 -52 0
11 30 52 0
-11 -30 -52 0
12 45 52 0
-12 -45 -52 0
13 52 60 0
-13 -52 -60 0
1 9 53 0
-1 -9 -53 0
10 16 53 0
-10 -16 -53 0
11 31 53 0
-11 -31 -53 0
12 46 53 0
-12 -46 -53 0
13 53 61 0
-13 -53 -61 0
2 9 54 0
-2 -9 -54 0
10 17 54 0
-10 -17 -54 0
11 32 54 0
-11 -32 -54 0
12 47 54 0
-12 -47 -54 0
3 9 55 0
-3 -9 -55 0
10 18 55 0
-10 -18 -55 0
11 33 55 0
-11 -33 -55 0
12 48 55 0
-12 -48 -55 0
4 9 56 0
-4 -9 -56 0
10 19 56 0
-10 -19 -56 0
11 34 56 0
-11 -34 -56 0
12 49 56 0
-12 -49 -56 0
5 9 57 0
-5 -9 -57 0
10 20 57 0
-10 -20 -57 0
11 35 57 0
-11 -35 -57 0
12 50 57 0
-12 -50 -57 0
6 9 58 0
-6 -9 -58 0
10 21 58 0
-10 -21 -58 0
11 36 58 0
-11 -36 -58 0
12 51 58 0
-12 -51 -58 0
7 9 59 0
-7 -9 -59 0
10 22 59 0
-10 -22 -59 0
11 37 59 0
-11 -37 -59 0
12 52 59 0
-12 -52 -59 0
8 9 60 0
-8 -9 -60 0
10 23 60 0
-10 -23 -60 0
11 38 60 0
-11 -38 -60 0
12 53 60 0
-12 -53 -60 0
9 61 0
-9 -61 0
10 24 61 0
-10 -24 -61 0
11 39 61 0
-11 -39 -61 0
12 54 61 0
-12 -54 -61 0
