certificates/rado_a15_c187_N61.drat
12 -58 9 0
-12 -60 -61 0
-60 -61 0
d -12 -60 -61 0
-61 0
9 0
16 6 0
-16 -58 0
d -16 -5 -58 0
-58 0
12 0
-5 0
-19 0
-2 0
-16 0
13 0
0
